Ordonnancement/plne/source/petit_instance/3job/3job_12.dat
data;
param nombreJob := 3;
param nombreRessource := 3;
param duree := 1 7 2 1 3 9;
param capaciteRessource := 1 4 2 14 3 18;
param besoinRessource : 1 2 3 :=
                    1   2 3 10
                    2   2 3 3
                    3   1 2 1;
end;

