Ordonnancement/plne/source/glpk_resultat/3job/3job_12.sol
Problem:    glpsolRcpsp
Rows:       151
Columns:    52 (51 integer, 51 binary)
Non-zeros:  757
Status:     INTEGER OPTIMAL
Objective:  obj = 9 (MINimum)

   No.   Row name        Activity     Lower bound   Upper bound
------ ------------    ------------- ------------- -------------
     1 periode[1]                  7             7             = 
     2 periode[2]                  1             1             = 
     3 periode[3]                  9             9             = 
     4 complet[1,1]               -1                           7 
     5 complet[1,2]                5                           7 
     6 complet[1,3]                4                           7 
     7 complet[1,4]                3                           7 
     8 complet[1,5]                2                           7 
     9 complet[1,6]                1                           7 
    10 complet[1,7]                0                           7 
    11 complet[1,8]                7                           7 
    12 complet[1,9]                0                           7 
    13 complet[1,10]
                                   0                           7 
    14 complet[1,11]
                                   0                           7 
    15 complet[1,12]
                                   0                           7 
    16 complet[1,13]
                                   0                           7 
    17 complet[1,14]
                                   0                           7 
    18 complet[1,15]
                                   0                           7 
    19 complet[2,1]                1                           1 
    20 complet[2,2]                0                           1 
    21 complet[2,3]                0                           1 
    22 complet[2,4]                0                           1 
    23 complet[2,5]                0                           1 
    24 complet[2,6]                0                           1 
    25 complet[2,7]                0                           1 
    26 complet[2,8]                0                           1 
    27 complet[2,9]                0                           1 
    28 complet[2,10]
                                   0                           1 
    29 complet[2,11]
                                   0                           1 
    30 complet[2,12]
                                   0                           1 
    31 complet[2,13]
                                   0                           1 
    32 complet[2,14]
                                   0                           1 
    33 complet[2,15]
                                   0                           1 
    34 complet[3,1]                7                           9 
    35 complet[3,2]                6                           9 
    36 complet[3,3]                5                           9 
    37 complet[3,4]                4                           9 
    38 complet[3,5]                3                           9 
    39 complet[3,6]                2                           9 
    40 complet[3,7]                1                           9 
    41 complet[3,8]                0                           9 
    42 complet[3,9]                9                           9 
    43 complet[3,10]
                                   0                           9 
    44 complet[3,11]
                                   0                           9 
    45 complet[3,12]
                                   0                           9 
    46 complet[3,13]
                                   0                           9 
    47 complet[3,14]
                                   0                           9 
    48 complet[3,15]
                                   0                           9 
    49 cmax[1,1]                   9            -0               
    50 cmax[1,2]                   7            -0               
    51 cmax[1,3]                   6            -0               
    52 cmax[1,4]                   5            -0               
    53 cmax[1,5]                   4            -0               
    54 cmax[1,6]                   3            -0               
    55 cmax[1,7]                   2            -0               
    56 cmax[1,8]                   1            -0               
    57 cmax[1,9]                   9            -0               
    58 cmax[1,10]                  9            -0               
    59 cmax[1,11]                  9            -0               
    60 cmax[1,12]                  9            -0               
    61 cmax[1,13]                  9            -0               
    62 cmax[1,14]                  9            -0               
    63 cmax[1,15]                  9            -0               
    64 cmax[1,16]                  9            -0               
    65 cmax[1,17]                  9            -0               
    66 cmax[2,1]                   8            -0               
    67 cmax[2,2]                   9            -0               
    68 cmax[2,3]                   9            -0               
    69 cmax[2,4]                   9            -0               
    70 cmax[2,5]                   9            -0               
    71 cmax[2,6]                   9            -0               
    72 cmax[2,7]                   9            -0               
    73 cmax[2,8]                   9            -0               
    74 cmax[2,9]                   9            -0               
    75 cmax[2,10]                  9            -0               
    76 cmax[2,11]                  9            -0               
    77 cmax[2,12]                  9            -0               
    78 cmax[2,13]                  9            -0               
    79 cmax[2,14]                  9            -0               
    80 cmax[2,15]                  9            -0               
    81 cmax[2,16]                  9            -0               
    82 cmax[2,17]                  9            -0               
    83 cmax[3,1]                   8            -0               
    84 cmax[3,2]                   7            -0               
    85 cmax[3,3]                   6            -0               
    86 cmax[3,4]                   5            -0               
    87 cmax[3,5]                   4            -0               
    88 cmax[3,6]                   3            -0               
    89 cmax[3,7]                   2            -0               
    90 cmax[3,8]                   1            -0               
    91 cmax[3,9]                   0            -0               
    92 cmax[3,10]                  9            -0               
    93 cmax[3,11]                  9            -0               
    94 cmax[3,12]                  9            -0               
    95 cmax[3,13]                  9            -0               
    96 cmax[3,14]                  9            -0               
    97 cmax[3,15]                  9            -0               
    98 cmax[3,16]                  9            -0               
    99 cmax[3,17]                  9            -0               
   100 ressource[1,1]
                                   3                           4 
   101 ressource[1,2]
                                   3                           4 
   102 ressource[1,3]
                                   3                           4 
   103 ressource[1,4]
                                   3                           4 
   104 ressource[1,5]
                                   3                           4 
   105 ressource[1,6]
                                   3                           4 
   106 ressource[1,7]
                                   3                           4 
   107 ressource[1,8]
                                   3                           4 
   108 ressource[1,9]
                                   1                           4 
   109 ressource[1,10]
                                   0                           4 
   110 ressource[1,11]
                                   0                           4 
   111 ressource[1,12]
                                   0                           4 
   112 ressource[1,13]
                                   0                           4 
   113 ressource[1,14]
                                   0                           4 
   114 ressource[1,15]
                                   0                           4 
   115 ressource[1,16]
                                   0                           4 
   116 ressource[1,17]
                                   0                           4 
   117 ressource[2,1]
                                   5                          14 
   118 ressource[2,2]
                                   5                          14 
   119 ressource[2,3]
                                   5                          14 
   120 ressource[2,4]
                                   5                          14 
   121 ressource[2,5]
                                   5                          14 
   122 ressource[2,6]
                                   5                          14 
   123 ressource[2,7]
                                   5                          14 
   124 ressource[2,8]
                                   5                          14 
   125 ressource[2,9]
                                   2                          14 
   126 ressource[2,10]
                                   0                          14 
   127 ressource[2,11]
                                   0                          14 
   128 ressource[2,12]
                                   0                          14 
   129 ressource[2,13]
                                   0                          14 
   130 ressource[2,14]
                                   0                          14 
   131 ressource[2,15]
                                   0                          14 
   132 ressource[2,16]
                                   0                          14 
   133 ressource[2,17]
                                   0                          14 
   134 ressource[3,1]
                                   4                          18 
   135 ressource[3,2]
                                  11                          18 
   136 ressource[3,3]
                                  11                          18 
   137 ressource[3,4]
                                  11                          18 
   138 ressource[3,5]
                                  11                          18 
   139 ressource[3,6]
                                  11                          18 
   140 ressource[3,7]
                                  11                          18 
   141 ressource[3,8]
                                  11                          18 
   142 ressource[3,9]
                                   1                          18 
   143 ressource[3,10]
                                   0                          18 
   144 ressource[3,11]
                                   0                          18 
   145 ressource[3,12]
                                   0                          18 
   146 ressource[3,13]
                                   0                          18 
   147 ressource[3,14]
                                   0                          18 
   148 ressource[3,15]
                                   0                          18 
   149 ressource[3,16]
                                   0                          18 
   150 ressource[3,17]
                                   0                          18 
   151 obj                         9                             

   No. Column name       Activity     Lower bound   Upper bound
------ ------------    ------------- ------------- -------------
     1 x[1,1]       *              0             0             1 
     2 x[1,2]       *              1             0             1 
     3 x[1,3]       *              1             0             1 
     4 x[1,4]       *              1             0             1 
     5 x[1,5]       *              1             0             1 
     6 x[1,6]       *              1             0             1 
     7 x[1,7]       *              1             0             1 
     8 x[1,8]       *              1             0             1 
     9 x[1,9]       *              0             0             1 
    10 x[1,10]      *              0             0             1 
    11 x[1,11]      *              0             0             1 
    12 x[1,12]      *              0             0             1 
    13 x[1,13]      *              0             0             1 
    14 x[1,14]      *              0             0             1 
    15 x[1,15]      *              0             0             1 
    16 x[1,16]      *              0             0             1 
    17 x[1,17]      *              0             0             1 
    18 x[2,1]       *              1             0             1 
    19 x[2,2]       *              0             0             1 
    20 x[2,3]       *              0             0             1 
    21 x[2,4]       *              0             0             1 
    22 x[2,5]       *              0             0             1 
    23 x[2,6]       *              0             0             1 
    24 x[2,7]       *              0             0             1 
    25 x[2,8]       *              0             0             1 
    26 x[2,9]       *              0             0             1 
    27 x[2,10]      *              0             0             1 
    28 x[2,11]      *              0             0             1 
    29 x[2,12]      *              0             0             1 
    30 x[2,13]      *              0             0             1 
    31 x[2,14]      *              0             0             1 
    32 x[2,15]      *              0             0             1 
    33 x[2,16]      *              0             0             1 
    34 x[2,17]      *              0             0             1 
    35 x[3,1]       *              1             0             1 
    36 x[3,2]       *              1             0             1 
    37 x[3,3]       *              1             0             1 
    38 x[3,4]       *              1             0             1 
    39 x[3,5]       *              1             0             1 
    40 x[3,6]       *              1             0             1 
    41 x[3,7]       *              1             0             1 
    42 x[3,8]       *              1             0             1 
    43 x[3,9]       *              1             0             1 
    44 x[3,10]      *              0             0             1 
    45 x[3,11]      *              0             0             1 
    46 x[3,12]      *              0             0             1 
    47 x[3,13]      *              0             0             1 
    48 x[3,14]      *              0             0             1 
    49 x[3,15]      *              0             0             1 
    50 x[3,16]      *              0             0             1 
    51 x[3,17]      *              0             0             1 
    52 z                           9                             

Integer feasibility conditions:

KKT.PE: max.abs.err = 0.00e+00 on row 0
        max.rel.err = 0.00e+00 on row 0
        High quality

KKT.PB: max.abs.err = 0.00e+00 on row 0
        max.rel.err = 0.00e+00 on row 0
        High quality

End of output
